c FILE: i160-233

c SOURCE: From steinlib

c DESCRIPTION: Steinlib instance with 160 nodes and 320 edges.

p edge 160 320
e 1 42
e 1 57
e 1 60
e 1 82
e 1 103
e 1 115
e 1 116
e 1 146
e 2 47
e 2 78
e 2 95
e 3 9
e 3 65
e 3 76
e 3 101
e 3 109
e 3 146
e 4 56
e 4 91
e 4 98
e 4 114
e 5 116
e 6 54
e 6 62
e 7 22
e 7 36
e 7 71
e 7 76
e 7 116
e 7 145
e 8 30
e 8 83
e 8 98
e 8 114
e 8 123
e 8 150
e 9 52
e 9 138
e 9 152
e 10 45
e 10 94
e 11 83
e 11 133
e 11 134
e 12 40
e 12 50
e 12 70
e 12 80
e 12 95
e 12 152
e 13 20
e 13 124
e 14 79
e 14 153
e 15 29
e 15 69
e 15 72
e 15 85
e 15 93
e 15 120
e 16 25
e 16 31
e 16 66
e 16 92
e 16 112
e 16 144
e 17 74
e 17 80
e 17 103
e 17 144
e 18 36
e 18 94
e 19 35
e 19 55
e 19 89
e 20 78
e 20 93
e 21 35
e 21 73
e 21 81
e 21 125
e 21 140
e 22 34
e 22 106
e 22 122
e 22 131
e 23 30
e 23 39
e 23 62
e 23 117
e 23 127
e 23 130
e 24 87
e 24 136
e 25 39
e 25 62
e 25 80
e 25 140
e 26 45
e 26 65
e 26 78
e 26 100
e 26 108
e 27 66
e 27 80
e 27 87
e 27 99
e 27 128
e 28 43
e 28 79
e 28 94
e 28 126
e 29 53
e 29 92
e 31 56
e 31 69
e 31 114
e 31 117
e 32 55
e 32 90
e 32 91
e 32 105
e 32 108
e 32 116
e 32 136
e 32 139
e 32 142
e 32 153
e 33 42
e 33 63
e 33 71
e 33 80
e 34 62
e 34 116
e 34 120
e 34 157
e 35 68
e 35 87
e 35 137
e 36 69
e 36 84
e 36 93
e 37 43
e 37 93
e 37 113
e 37 152
e 37 158
e 38 44
e 38 48
e 38 113
e 39 83
e 39 98
e 39 132
e 40 52
e 40 94
e 41 43
e 41 86
e 41 103
e 41 114
e 42 80
e 42 81
e 43 46
e 43 78
e 43 131
e 43 142
e 44 134
e 45 116
e 45 122
e 45 125
e 45 135
e 46 56
e 46 105
e 47 59
e 47 70
e 47 76
e 47 79
e 47 103
e 47 146
e 47 159
e 48 49
e 48 51
e 49 139
e 49 159
e 50 75
e 50 139
e 50 149
e 51 99
e 51 116
e 51 146
e 53 67
e 53 97
e 53 144
e 54 66
e 54 113
e 55 88
e 55 100
e 55 135
e 55 156
e 56 89
e 56 110
e 56 120
e 56 141
e 57 60
e 57 80
e 58 64
e 58 80
e 59 87
e 59 132
e 60 114
e 60 124
e 60 144
e 61 67
e 61 82
e 61 129
e 62 66
e 62 99
e 62 129
e 63 79
e 63 122
e 63 132
e 63 147
e 64 118
e 64 137
e 65 87
e 66 83
e 66 109
e 68 94
e 68 118
e 68 121
e 69 82
e 70 84
e 71 74
e 71 143
e 71 148
e 71 154
e 72 128
e 72 155
e 73 82
e 74 78
e 74 113
e 75 91
e 75 141
e 75 142
e 76 154
e 77 109
e 77 114
e 77 141
e 78 85
e 78 104
e 78 106
e 78 114
e 78 138
e 79 110
e 79 151
e 80 87
e 80 125
e 82 110
e 83 111
e 84 143
e 85 94
e 85 102
e 86 134
e 86 140
e 87 98
e 87 112
e 87 124
e 88 101
e 89 125
e 89 151
e 90 104
e 90 110
e 92 149
e 93 95
e 93 156
e 94 106
e 95 111
e 95 126
e 95 134
e 96 104
e 96 150
e 97 110
e 97 115
e 98 106
e 99 104
e 99 132
e 99 135
e 100 120
e 101 147
e 102 154
e 103 140
e 105 112
e 107 108
e 107 137
e 107 141
e 108 141
e 109 124
e 109 127
e 111 136
e 112 158
e 113 118
e 114 141
e 114 148
e 116 124
e 116 129
e 116 143
e 116 154
e 117 131
e 117 152
e 118 121
e 118 160
e 119 141
e 122 155
e 126 145
e 129 134
e 132 145
e 136 140
e 136 160
e 138 152
e 138 155
e 149 155
